c Generated map
c Size: 15 * 15, weights in range: 1 to 10, walls: True, with ratio 0.1
c dim 1 of 4
c
p sp 225 339
c graph contains 225 nodes and 339 arcs
c
a 1 16 10
a 16 1 10
a 1 2 7
a 2 1 7
a 2 17 10
a 17 2 10
a 2 3 4
a 3 2 4
a 3 18 9
a 18 3 9
a 3 4 1
a 4 3 1
a 4 19 1
a 19 4 1
a 4 5 9
a 5 4 9
a 5 20 10
a 20 5 10
a 5 6 2
a 6 5 2
a 6 21 1
a 21 6 1
a 6 7 9
a 7 6 9
a 7 22 5
a 22 7 5
a 7 8 8
a 8 7 8
a 8 9 6
a 9 8 6
a 9 24 6
a 24 9 6
a 9 10 7
a 10 9 7
a 10 25 9
a 25 10 9
a 10 11 3
a 11 10 3
a 11 26 4
a 26 11 4
a 11 12 5
a 12 11 5
a 12 27 2
a 27 12 2
a 12 13 7
a 13 12 7
a 13 28 3
a 28 13 3
a 13 14 3
a 14 13 3
a 14 29 10
a 29 14 10
a 14 15 10
a 15 14 10
a 15 30 6
a 30 15 6
a 16 31 3
a 31 16 3
a 16 17 10
a 17 16 10
a 17 32 1
a 32 17 1
a 17 18 10
a 18 17 10
a 18 33 5
a 33 18 5
a 18 19 10
a 19 18 10
a 19 34 6
a 34 19 6
a 19 20 8
a 20 19 8
a 20 35 10
a 35 20 10
a 20 21 6
a 21 20 6
a 21 36 4
a 36 21 4
a 21 22 5
a 22 21 5
a 22 37 4
a 37 22 4
a 24 39 9
a 39 24 9
a 24 25 5
a 25 24 5
a 25 40 10
a 40 25 10
a 25 26 9
a 26 25 9
a 26 41 9
a 41 26 9
a 26 27 7
a 27 26 7
a 27 28 5
a 28 27 5
a 28 43 6
a 43 28 6
a 28 29 6
a 29 28 6
a 29 44 4
a 44 29 4
a 29 30 2
a 30 29 2
a 30 45 2
a 45 30 2
a 31 46 4
a 46 31 4
a 31 32 7
a 32 31 7
a 32 47 5
a 47 32 5
a 32 33 10
a 33 32 10
a 33 48 6
a 48 33 6
a 33 34 5
a 34 33 5
a 34 49 6
a 49 34 6
a 34 35 8
a 35 34 8
a 35 50 8
a 50 35 8
a 35 36 8
a 36 35 8
a 36 51 9
a 51 36 9
a 36 37 1
a 37 36 1
a 37 52 5
a 52 37 5
a 37 38 6
a 38 37 6
a 38 53 3
a 53 38 3
a 38 39 1
a 39 38 1
a 39 54 4
a 54 39 4
a 39 40 7
a 40 39 7
a 40 55 3
a 55 40 3
a 40 41 4
a 41 40 4
a 41 56 8
a 56 41 8
a 43 58 3
a 58 43 3
a 43 44 8
a 44 43 8
a 44 59 5
a 59 44 5
a 44 45 7
a 45 44 7
a 45 60 1
a 60 45 1
a 46 61 1
a 61 46 1
a 46 47 7
a 47 46 7
a 47 62 10
a 62 47 10
a 47 48 10
a 48 47 10
a 48 49 7
a 49 48 7
a 49 64 2
a 64 49 2
a 49 50 10
a 50 49 10
a 50 65 3
a 65 50 3
a 50 51 2
a 51 50 2
a 51 66 9
a 66 51 9
a 51 52 2
a 52 51 2
a 52 67 8
a 67 52 8
a 52 53 10
a 53 52 10
a 53 68 3
a 68 53 3
a 53 54 4
a 54 53 4
a 54 69 8
a 69 54 8
a 54 55 8
a 55 54 8
a 55 70 9
a 70 55 9
a 55 56 2
a 56 55 2
a 56 71 3
a 71 56 3
a 56 57 1
a 57 56 1
a 57 72 2
a 72 57 2
a 57 58 10
a 58 57 10
a 58 73 3
a 73 58 3
a 58 59 3
a 59 58 3
a 59 74 3
a 74 59 3
a 59 60 4
a 60 59 4
a 60 75 3
a 75 60 3
a 61 76 2
a 76 61 2
a 61 62 6
a 62 61 6
a 62 77 2
a 77 62 2
a 64 79 9
a 79 64 9
a 64 65 3
a 65 64 3
a 65 80 6
a 80 65 6
a 65 66 4
a 66 65 4
a 66 81 8
a 81 66 8
a 66 67 4
a 67 66 4
a 67 82 2
a 82 67 2
a 67 68 8
a 68 67 8
a 68 83 7
a 83 68 7
a 68 69 8
a 69 68 8
a 69 70 4
a 70 69 4
a 70 85 1
a 85 70 1
a 70 71 2
a 71 70 2
a 71 86 3
a 86 71 3
a 71 72 4
a 72 71 4
a 72 87 2
a 87 72 2
a 72 73 1
a 73 72 1
a 73 88 7
a 88 73 7
a 73 74 9
a 74 73 9
a 74 89 6
a 89 74 6
a 74 75 4
a 75 74 4
a 75 90 6
a 90 75 6
a 76 91 5
a 91 76 5
a 76 77 3
a 77 76 3
a 77 92 6
a 92 77 6
a 77 78 4
a 78 77 4
a 78 79 2
a 79 78 2
a 79 94 4
a 94 79 4
a 79 80 2
a 80 79 2
a 80 95 4
a 95 80 4
a 80 81 2
a 81 80 2
a 81 96 9
a 96 81 9
a 81 82 8
a 82 81 8
a 82 97 5
a 97 82 5
a 82 83 4
a 83 82 4
a 83 98 7
a 98 83 7
a 85 86 5
a 86 85 5
a 86 101 5
a 101 86 5
a 86 87 6
a 87 86 6
a 87 102 7
a 102 87 7
a 87 88 5
a 88 87 5
a 88 103 6
a 103 88 6
a 88 89 8
a 89 88 8
a 89 104 7
a 104 89 7
a 89 90 10
a 90 89 10
a 90 105 3
a 105 90 3
a 91 106 4
a 106 91 4
a 91 92 6
a 92 91 6
a 92 107 3
a 107 92 3
a 94 109 10
a 109 94 10
a 94 95 9
a 95 94 9
a 95 110 8
a 110 95 8
a 95 96 1
a 96 95 1
a 96 111 3
a 111 96 3
a 96 97 6
a 97 96 6
a 97 112 1
a 112 97 1
a 97 98 10
a 98 97 10
a 98 113 7
a 113 98 7
a 98 99 7
a 99 98 7
a 99 114 1
a 114 99 1
a 101 116 10
a 116 101 10
a 101 102 10
a 102 101 10
a 102 117 4
a 117 102 4
a 102 103 10
a 103 102 10
a 103 104 5
a 104 103 5
a 104 119 8
a 119 104 8
a 104 105 5
a 105 104 5
a 105 120 3
a 120 105 3
a 106 121 7
a 121 106 7
a 106 107 7
a 107 106 7
a 107 122 8
a 122 107 8
a 107 108 2
a 108 107 2
a 108 123 2
a 123 108 2
a 108 109 10
a 109 108 10
a 109 124 9
a 124 109 9
a 109 110 8
a 110 109 8
a 110 125 9
a 125 110 9
a 110 111 10
a 111 110 10
a 111 126 3
a 126 111 3
a 111 112 6
a 112 111 6
a 112 127 8
a 127 112 8
a 112 113 5
a 113 112 5
a 113 114 3
a 114 113 3
a 114 129 2
a 129 114 2
a 114 115 2
a 115 114 2
a 115 130 9
a 130 115 9
a 115 116 10
a 116 115 10
a 116 117 7
a 117 116 7
a 119 134 4
a 134 119 4
a 119 120 4
a 120 119 4
a 120 135 2
a 135 120 2
a 121 136 8
a 136 121 8
a 121 122 5
a 122 121 5
a 122 123 6
a 123 122 6
a 123 138 6
a 138 123 6
a 123 124 10
a 124 123 10
a 124 139 8
a 139 124 8
a 124 125 1
a 125 124 1
a 125 126 3
a 126 125 3
a 126 141 6
a 141 126 6
a 126 127 7
a 127 126 7
a 127 142 8
a 142 127 8
a 129 144 7
a 144 129 7
a 129 130 7
a 130 129 7
a 130 145 9
a 145 130 9
a 133 148 6
a 148 133 6
a 133 134 1
a 134 133 1
a 134 149 1
a 149 134 1
a 134 135 6
a 135 134 6
a 135 150 7
a 150 135 7
a 136 151 8
a 151 136 8
a 138 153 7
a 153 138 7
a 138 139 10
a 139 138 10
a 139 154 1
a 154 139 1
a 141 156 8
a 156 141 8
a 141 142 10
a 142 141 10
a 142 157 1
a 157 142 1
a 144 159 4
a 159 144 4
a 144 145 2
a 145 144 2
a 145 160 5
a 160 145 5
a 145 146 6
a 146 145 6
a 146 161 4
a 161 146 4
a 148 163 7
a 163 148 7
a 148 149 8
a 149 148 8
a 149 164 5
a 164 149 5
a 149 150 9
a 150 149 9
a 150 165 1
a 165 150 1
a 151 166 9
a 166 151 9
a 151 152 6
a 152 151 6
a 152 167 1
a 167 152 1
a 152 153 3
a 153 152 3
a 153 168 5
a 168 153 5
a 153 154 5
a 154 153 5
a 154 169 4
a 169 154 4
a 154 155 3
a 155 154 3
a 155 156 8
a 156 155 8
a 156 171 7
a 171 156 7
a 156 157 8
a 157 156 8
a 157 172 2
a 172 157 2
a 157 158 8
a 158 157 8
a 158 173 2
a 173 158 2
a 158 159 10
a 159 158 10
a 159 174 1
a 174 159 1
a 159 160 8
a 160 159 8
a 160 161 9
a 161 160 9
a 161 176 7
a 176 161 7
a 161 162 2
a 162 161 2
a 162 177 3
a 177 162 3
a 162 163 7
a 163 162 7
a 163 178 8
a 178 163 8
a 163 164 1
a 164 163 1
a 164 179 5
a 179 164 5
a 164 165 3
a 165 164 3
a 165 180 2
a 180 165 2
a 166 181 10
a 181 166 10
a 166 167 9
a 167 166 9
a 167 182 3
a 182 167 3
a 167 168 10
a 168 167 10
a 168 169 4
a 169 168 4
a 169 184 10
a 184 169 10
a 171 172 9
a 172 171 9
a 172 187 6
a 187 172 6
a 172 173 1
a 173 172 1
a 173 188 9
a 188 173 9
a 173 174 1
a 174 173 1
a 174 189 8
a 189 174 8
a 176 191 5
a 191 176 5
a 176 177 5
a 177 176 5
a 177 192 9
a 192 177 9
a 177 178 2
a 178 177 2
a 178 193 4
a 193 178 4
a 178 179 9
a 179 178 9
a 179 194 7
a 194 179 7
a 179 180 4
a 180 179 4
a 180 195 10
a 195 180 10
a 181 196 5
a 196 181 5
a 181 182 10
a 182 181 10
a 182 197 8
a 197 182 8
a 184 199 3
a 199 184 3
a 187 202 2
a 202 187 2
a 187 188 8
a 188 187 8
a 188 203 4
a 203 188 4
a 188 189 2
a 189 188 2
a 189 204 6
a 204 189 6
a 189 190 5
a 190 189 5
a 190 191 2
a 191 190 2
a 191 206 8
a 206 191 8
a 191 192 9
a 192 191 9
a 192 207 4
a 207 192 4
a 192 193 5
a 193 192 5
a 193 208 7
a 208 193 7
a 193 194 6
a 194 193 6
a 194 209 6
a 209 194 6
a 194 195 7
a 195 194 7
a 195 210 3
a 210 195 3
a 196 211 1
a 211 196 1
a 196 197 8
a 197 196 8
a 197 198 2
a 198 197 2
a 198 213 8
a 213 198 8
a 198 199 5
a 199 198 5
a 199 214 9
a 214 199 9
a 199 200 8
a 200 199 8
a 200 215 9
a 215 200 9
a 200 201 4
a 201 200 4
a 201 216 2
a 216 201 2
a 201 202 6
a 202 201 6
a 202 217 6
a 217 202 6
a 202 203 7
a 203 202 7
a 203 218 7
a 218 203 7
a 203 204 9
a 204 203 9
a 206 221 8
a 221 206 8
a 206 207 2
a 207 206 2
a 207 222 3
a 222 207 3
a 207 208 3
a 208 207 3
a 208 223 1
a 223 208 1
a 208 209 10
a 209 208 10
a 209 224 4
a 224 209 4
a 209 210 5
a 210 209 5
a 210 225 4
a 225 210 4
a 213 214 2
a 214 213 2
a 214 215 4
a 215 214 4
a 215 216 3
a 216 215 3
a 216 217 9
a 217 216 9
a 217 218 7
a 218 217 7
a 220 221 10
a 221 220 10
a 221 222 1
a 222 221 1
a 222 223 2
a 223 222 2
a 223 224 4
a 224 223 4
a 224 225 10
a 225 224 10
